unknown
(model
; cardinality of BoundSet is 3
(declare-sort BoundSet 0)
; rep: @uc_BoundSet_0
; rep: @uc_BoundSet_1
; rep: @uc_BoundSet_2
; cardinality of UnboundSet is 1
(declare-sort UnboundSet 0)
(declare-fun groundTerm_4 () UnboundSet)
(define-fun IsSmall ((BOUND_VARIABLE_403 BoundSet)) Bool true)
(define-fun IsInPinkDress ((BOUND_VARIABLE_403 BoundSet)) Bool true)
(define-fun IsPlayingWith ((BOUND_VARIABLE_414 BoundSet) (BOUND_VARIABLE_415 BoundSet) (BOUND_VARIABLE_416 BoundSet)) Bool true)
(define-fun IsPlaying ((BOUND_VARIABLE_427 BoundSet) (BOUND_VARIABLE_428 BoundSet)) Bool false)
)
sat
(model
; cardinality of BoundSet is 1
(declare-sort BoundSet 0)
; rep: @uc_BoundSet_0
; cardinality of UnboundSet is 1
(declare-sort UnboundSet 0)
(declare-fun groundTerm_6 () UnboundSet)
(define-fun IsSmall ((BOUND_VARIABLE_443 BoundSet)) Bool true)
(define-fun IsInPinkDress ((BOUND_VARIABLE_443 BoundSet)) Bool true)
(define-fun IsPlayingWith ((BOUND_VARIABLE_454 BoundSet) (BOUND_VARIABLE_455 BoundSet) (BOUND_VARIABLE_456 BoundSet)) Bool true)
(define-fun IsPlaying ((BOUND_VARIABLE_463 BoundSet) (BOUND_VARIABLE_464 BoundSet)) Bool false)
)
